;  time  = 600
;  terms = 147
;  score = 0.20540540540540542
(set-logic QF_FP)
(declare-const x0 (_ FloatingPoint 8 24))
(declare-const x1 (_ FloatingPoint 8 24))
(declare-const x2 (_ FloatingPoint 8 24))
(declare-const x3 (_ FloatingPoint 8 24))
(declare-const x4 (_ FloatingPoint 8 24))
(declare-const x5 (_ FloatingPoint 8 24))
(declare-const x6 (_ FloatingPoint 8 24))
(declare-const x7 (_ FloatingPoint 8 24))
(declare-const x8 (_ FloatingPoint 8 24))
(declare-const x9 (_ FloatingPoint 8 24))
(declare-const x10 (_ FloatingPoint 8 24))
(declare-const x11 (_ FloatingPoint 8 24))
(declare-const x12 (_ FloatingPoint 8 24))
(declare-const x13 (_ FloatingPoint 8 24))
(declare-const x14 (_ FloatingPoint 8 24))
(assert (fp.isSubnormal (fp.sub RNE (fp.add RNE (fp.sub RNE (fp.mul RNE (fp.sub RNE (fp.add RNE (fp.sub RNE (fp.neg (fp.sub RNE x13 x1)) (fp.neg (fp.mul RNE x3 x5))) (fp.abs (fp.mul RNE (fp.neg x2) (fp.neg x12)))) (fp.neg (fp.abs (fp.add RNE (fp.sub RNE x12 x8) (fp.abs x1))))) (fp.mul RNE (fp.sub RNE (fp.neg x1) (fp.add RNE x0 (fp.sub RNE x5 x7))) (fp.neg x3))) (fp.neg (fp.sub RNE (fp.sub RNE (fp.abs x6) (fp.abs (fp.sub RNE (fp.neg x6) (fp.sub RNE x11 x1)))) x11))) (fp.abs (fp.add RNE (fp.add RNE (fp.neg (fp.abs (fp.abs (fp.sub RNE x13 x5)))) (fp.mul RNE (fp.neg (fp.abs (fp.neg x6))) (fp.neg (fp.add RNE (fp.add RNE x7 x11) (fp.mul RNE x4 x7))))) (fp.sub RNE (fp.mul RNE (fp.sub RNE (fp.sub RNE (fp.sub RNE x0 x5) (fp.add RNE x4 x9)) x13) x13) (fp.mul RNE (fp.add RNE (fp.neg (fp.neg x8)) (fp.mul RNE x4 (fp.abs x12))) x13))))) (fp.neg (fp.sub RNE (fp.neg (fp.sub RNE (fp.add RNE (fp.mul RNE (fp.add RNE x6 (fp.mul RNE x14 x5)) (fp.add RNE (fp.sub RNE x12 x10) (fp.neg x8))) x8) (fp.neg (fp.add RNE x9 (fp.abs (fp.add RNE x14 x8)))))) (fp.mul RNE (fp.add RNE (fp.neg (fp.abs (fp.mul RNE (fp.mul RNE x13 x3) (fp.mul RNE x9 x4)))) x2) (fp.mul RNE x5 (fp.add RNE (fp.add RNE (fp.sub RNE (fp.mul RNE x5 x13) (fp.neg x11)) x4) x9))))))))
(check-sat)